provided_instances/project.8.sol
OBJECTIVE: 333

Slot 1
1 white, 15 black
2 white, 13 black
3 white, 14 black
5 white, 4 black
12 white, 6 black
7 white, 16 black
10 white, 8 black
17 white, 11 black

Slot 2
10 white, 2 black
6 white, 3 black
4 white, 16 black
7 white, 5 black
15 white, 8 black
12 white, 9 black
13 white, 11 black
17 white, 14 black

Slot 3
7 white, 1 black
2 white, 16 black
4 white, 3 black
9 white, 5 black
6 white, 15 black
11 white, 8 black
17 white, 10 black
14 white, 12 black

Slot 4
1 white, 11 black
6 white, 2 black
3 white, 12 black
10 white, 4 black
5 white, 14 black
7 white, 17 black
13 white, 8 black
16 white, 9 black

Slot 5
1 white, 17 black
2 white, 15 black
7 white, 3 black
6 white, 4 black
8 white, 5 black
11 white, 9 black
12 white, 10 black
14 white, 13 black

Slot 6
1 white, 16 black
4 white, 2 black
3 white, 13 black
11 white, 5 black
10 white, 7 black
8 white, 17 black
14 white, 9 black
15 white, 12 black

Slot 7
1 white, 12 black
7 white, 2 black
9 white, 3 black
5 white, 15 black
6 white, 17 black
14 white, 8 black
13 white, 10 black
16 white, 11 black

Slot 8
6 white, 1 black
2 white, 14 black
11 white, 3 black
4 white, 13 black
5 white, 17 black
12 white, 7 black
9 white, 8 black
16 white, 15 black

Slot 9
8 white, 1 black
2 white, 12 black
3 white, 17 black
11 white, 4 black
6 white, 16 black
14 white, 7 black
10 white, 9 black
15 white, 13 black

Slot 10
5 white, 1 black
8 white, 3 black
4 white, 14 black
9 white, 6 black
11 white, 7 black
15 white, 10 black
16 white, 12 black
17 white, 13 black

Slot 11
1 white, 13 black
8 white, 2 black
3 white, 15 black
12 white, 4 black
5 white, 16 black
7 white, 6 black
17 white, 9 black
14 white, 10 black

Slot 12
1 white, 10 black
2 white, 17 black
4 white, 15 black
13 white, 5 black
14 white, 6 black
9 white, 7 black
16 white, 8 black
12 white, 11 black

Slot 13
2 white, 1 black
10 white, 3 black
7 white, 4 black
6 white, 5 black
12 white, 8 black
15 white, 9 black
14 white, 11 black
16 white, 13 black

Slot 14
1 white, 14 black
5 white, 2 black
3 white, 16 black
9 white, 4 black
8 white, 6 black
11 white, 10 black
13 white, 12 black
17 white, 15 black

Slot 15
3 white, 1 black
9 white, 2 black
8 white, 4 black
10 white, 5 black
11 white, 6 black
13 white, 7 black
15 white, 14 black
17 white, 16 black

Slot 16
4 white, 1 black
2 white, 11 black
5 white, 3 black
10 white, 6 black
15 white, 7 black
13 white, 9 black
17 white, 12 black
16 white, 14 black

Slot 17
9 white, 1 black
3 white, 2 black
4 white, 17 black
12 white, 5 black
13 white, 6 black
8 white, 7 black
16 white, 10 black
15 white, 11 black




